100
32
29
20
16
4
12
31
6
5
32
7
24
5
9
18
24
18
1
2
21
8
8
2
3
17
6
5
2
4
3
2
17
2
2
18
20
6
4
4
3
17
7
1
25
7
2
3
18
17
17
4
29
17
2
9
8
5
18
5
6
2
2
5
3
3
5
32
4
2
2
19
17
2
3
31
4
9
2
1
4
13
18
18
2
4
2
3
2
2
30
1
1
3
3
3
1
1
2
8
22
2